<number of tasks>
30

<cycle time>
25

<task times>
1 8
2 7
3 19
4 10
5 2
6 6
7 14
8 10
9 1
10 4
11 14
12 15
13 5
14 12
15 9
16 10
17 2
18 10
19 18
20 16
21 21
22 14
23 16
24 7
25 17
26 9
27 25
28 7
29 14
30 2

<precedence relations>
1,4
1,5
2,11
2,12
3,16
3,17
4,7
5,6
6,7
7,8
8,9
9,26
10,24
12,13
13,14
14,15
14,20
15,22
16,20
17,18
18,19
20,21
20,24
21,22
22,23
23,27
24,25
25,26
26,27
27,28
27,29
29,30

<setup times forward>
1,3:1
1,5:4
1,11:1
1,12:4
1,13:1
1,14:1
1,15:2
1,16:2
1,18:1
1,19:3
1,20:2
1,22:3
1,23:1
1,24:3
1,25:3
2,3:1
2,5:4
2,6:4
2,7:2
2,8:3
2,9:3
2,11:1
2,12:4
2,16:2
2,18:1
2,19:3
3,1:1
3,2:1
3,4:1
3,5:5
3,6:5
3,7:3
3,8:4
3,9:4
3,10:1
3,11:2
3,12:5
3,14:2
3,15:1
3,16:3
3,17:1
4,3:1
4,5:4
4,6:4
4,7:2
4,11:1
4,12:4
4,13:1
4,14:1
4,15:2
4,16:2
4,18:1
4,19:3
4,20:2
4,22:3
4,23:1
4,24:3
4,25:3
5,2:4
5,3:5
5,4:4
5,10:4
5,11:3
5,13:5
5,14:3
5,15:6
5,16:2
5,17:4
5,18:3
5,19:1
5,20:6
5,21:4
5,22:1
5,23:5
5,24:7
5,25:7
6,2:4
6,3:5
6,4:4
6,7:2
6,10:4
6,11:3
6,13:5
6,14:3
6,15:6
6,16:2
6,17:4
6,18:3
6,19:1
6,20:6
6,21:4
6,22:1
6,23:5
6,24:7
6,25:7
7,2:2
7,3:3
7,8:1
7,10:2
7,11:1
7,12:2
7,13:3
7,14:1
7,15:4
7,17:2
7,18:1
7,19:1
7,20:4
7,21:2
7,22:1
7,23:3
7,24:5
7,25:5
8,2:3
8,3:4
8,10:3
8,11:2
8,12:1
8,13:4
8,14:2
8,15:5
8,16:1
8,17:3
8,18:2
8,20:5
8,21:3
8,23:4
8,24:6
8,25:6
9,2:3
9,3:4
9,10:3
9,11:2
9,12:1
9,13:4
9,14:2
9,15:5
9,16:1
9,17:3
9,18:2
9,20:5
9,21:3
9,23:4
9,24:6
9,25:6
9,26:4
10,3:1
10,5:4
10,6:4
10,7:2
10,8:3
10,9:3
10,11:1
10,12:4
10,13:1
10,14:1
10,15:2
10,16:2
10,18:1
10,19:3
10,20:2
10,22:3
10,23:1
10,24:3
11,1:1
11,3:2
11,4:1
11,5:3
11,6:3
11,7:1
11,8:2
11,9:2
11,10:1
11,12:3
11,13:2
11,15:3
11,16:1
11,17:1
11,19:2
11,20:3
11,21:1
11,22:2
11,23:2
11,24:4
11,25:4
11,26:2
11,27:5
11,28:2
11,29:1
11,30:1
12,1:4
12,3:5
12,4:4
12,7:2
12,8:1
12,9:1
12,10:4
12,11:3
12,13:5
12,16:2
12,17:4
12,18:3
12,19:1
13,1:1
13,4:1
13,5:5
13,6:5
13,7:3
13,8:4
13,9:4
13,10:1
13,11:2
13,14:2
13,16:3
13,17:1
13,18:2
13,19:4
14,1:1
14,3:2
14,4:1
14,5:3
14,6:3
14,7:1
14,8:2
14,9:2
14,10:1
14,15:3
14,16:1
14,17:1
14,19:2
14,20:3
15,1:2
15,3:1
15,4:2
15,5:6
15,6:6
15,7:4
15,8:5
15,9:5
15,10:2
15,11:3
15,16:4
15,17:2
15,18:3
15,19:5
15,21:2
15,22:5
15,24:1
15,25:1
15,26:1
16,1:2
16,2:2
16,4:2
16,5:2
16,6:2
16,8:1
16,9:1
16,10:2
16,11:1
16,12:2
16,13:3
16,14:1
16,15:4
16,17:2
16,18:1
16,19:1
16,20:4
17,5:4
17,6:4
17,7:2
17,8:3
17,9:3
17,11:1
17,12:4
17,13:1
17,14:1
17,15:2
17,16:2
17,18:1
17,20:2
17,22:3
17,23:1
17,24:3
17,25:3
17,26:1
17,27:4
17,28:3
18,1:1
18,2:1
18,4:1
18,5:3
18,6:3
18,7:1
18,8:2
18,9:2
18,10:1
18,12:3
18,13:2
18,15:3
18,16:1
18,19:2
18,20:3
18,21:1
18,22:2
18,23:2
18,24:4
18,25:4
18,26:2
18,27:5
18,28:2
18,29:1
18,30:1
19,1:3
19,2:3
19,4:3
19,5:1
19,6:1
19,7:1
19,10:3
19,11:2
19,12:1
19,13:4
19,14:2
19,15:5
19,16:1
19,20:5
19,21:3
19,23:4
19,24:6
19,25:6
19,26:4
19,27:7
19,29:3
19,30:3
20,1:2
20,4:2
20,5:6
20,6:6
20,7:4
20,8:5
20,9:5
20,10:2
20,11:3
20,17:2
20,18:3
20,19:5
20,21:2
20,24:1
21,5:4
21,6:4
21,7:2
21,8:3
21,9:3
21,11:1
21,15:2
21,18:1
21,19:3
21,22:3
21,24:3
21,25:3
21,26:1
22,1:3
22,4:3
22,5:1
22,6:1
22,7:1
22,10:3
22,11:2
22,17:3
22,18:2
22,23:4
22,24:6
22,25:6
22,26:4
23,1:1
23,4:1
23,5:5
23,6:5
23,7:3
23,8:4
23,9:4
23,10:1
23,11:2
23,17:1
23,18:2
23,19:4
23,24:2
23,25:2
23,27:3
24,1:3
24,4:3
24,5:7
24,6:7
24,7:5
24,8:6
24,9:6
24,11:4
24,15:1
24,17:3
24,18:4
24,19:6
24,21:3
24,22:6
24,23:2
25,1:3
25,4:3
25,5:7
25,6:7
25,7:5
25,8:6
25,9:6
25,11:4
25,15:1
25,17:3
25,18:4
25,19:6
25,21:3
25,22:6
25,23:2
25,26:2
26,11:2
26,15:1
26,17:1
26,18:2
26,19:4
26,21:1
26,22:4
26,27:3
27,11:5
27,17:4
27,18:5
27,19:7
27,28:7
27,29:4
28,11:2
28,17:3
28,18:2
28,29:3
28,30:3
29,11:1
29,18:1
29,19:3
29,28:3
30,11:1
30,18:1
30,19:3
30,28:3

<setup times backward>
1,3:1
1,13:1
1,15:2
1,20:2
1,23:1
1,24:3
1,25:3
2,3:1
3,15:1
4,3:1
4,13:1
4,15:2
4,20:2
4,23:1
4,24:3
4,25:3
5,1:4
5,2:4
5,3:5
5,4:4
5,10:4
5,11:3
5,13:5
5,14:3
5,15:6
5,16:2
5,17:4
5,18:3
5,19:1
5,20:6
5,21:4
5,22:1
5,23:5
5,24:7
5,25:7
6,1:4
6,2:4
6,3:5
6,4:4
6,10:4
6,11:3
6,13:5
6,14:3
6,15:6
6,16:2
6,17:4
6,18:3
6,19:1
6,20:6
6,21:4
6,22:1
6,23:5
6,24:7
6,25:7
7,1:2
7,2:2
7,3:3
7,4:2
7,10:2
7,11:1
7,13:3
7,14:1
7,15:4
7,17:2
7,18:1
7,20:4
7,21:2
7,23:3
7,24:5
7,25:5
8,1:3
8,2:3
8,3:4
8,4:3
8,7:1
8,10:3
8,11:2
8,13:4
8,14:2
8,15:5
8,16:1
8,17:3
8,18:2
8,20:5
8,21:3
8,23:4
8,24:6
8,25:6
9,1:3
9,2:3
9,3:4
9,4:3
9,7:1
9,10:3
9,11:2
9,13:4
9,14:2
9,15:5
9,16:1
9,17:3
9,18:2
9,20:5
9,21:3
9,23:4
9,24:6
9,25:6
10,3:1
10,13:1
10,15:2
10,20:2
10,23:1
11,1:1
11,2:1
11,3:2
11,4:1
11,10:1
11,13:2
11,15:3
11,17:1
11,20:3
11,21:1
11,23:2
11,24:4
11,25:4
11,26:2
11,27:5
11,29:1
11,30:1
12,1:4
12,2:4
12,3:5
12,4:4
12,7:2
12,8:1
12,9:1
12,10:4
12,11:3
12,16:2
12,17:4
12,18:3
12,19:1
14,1:1
14,2:1
14,3:2
14,4:1
14,10:1
14,13:2
14,17:1
15,24:1
15,25:1
16,1:2
16,2:2
16,3:3
16,4:2
16,10:2
16,11:1
16,13:3
16,14:1
16,15:4
16,17:2
16,18:1
17,3:1
17,13:1
17,15:2
17,20:2
17,23:1
17,24:3
17,25:3
17,26:1
17,27:4
18,1:1
18,2:1
18,3:2
18,4:1
18,10:1
18,13:2
18,15:3
18,17:1
18,20:3
18,21:1
18,23:2
18,24:4
18,25:4
18,26:2
18,27:5
18,29:1
18,30:1
19,1:3
19,2:3
19,3:4
19,4:3
19,7:1
19,10:3
19,11:2
19,13:4
19,14:2
19,15:5
19,16:1
19,17:3
19,18:2
19,20:5
19,21:3
19,23:4
19,24:6
19,25:6
19,26:4
19,27:7
19,29:3
19,30:3
21,3:1
21,13:1
21,15:2
21,20:2
21,24:3
21,25:3
21,26:1
22,1:3
22,2:3
22,3:4
22,4:3
22,7:1
22,10:3
22,11:2
22,13:4
22,14:2
22,15:5
22,16:1
22,17:3
22,18:2
22,20:5
22,21:3
22,24:6
22,25:6
22,26:4
23,15:1
23,20:1
23,24:2
23,25:2
26,15:1
26,20:1
26,24:2
26,25:2
28,1:3
28,2:3
28,3:4
28,4:3
28,7:1
28,10:3
28,11:2
28,13:4
28,14:2
28,15:5
28,16:1
28,17:3
28,18:2
28,20:5
28,21:3
28,23:4
28,24:6
28,25:6
28,26:4
28,27:7
28,29:3
28,30:3
29,3:1
29,13:1
29,15:2
29,20:2
29,23:1
29,24:3
29,25:3
29,26:1
29,27:4
30,3:1
30,13:1
30,15:2
30,20:2
30,23:1
30,24:3
30,25:3
30,26:1
30,27:4

<end>

<optimal SALBP-1 value>
14


<rand seed>
467321153

<Lower Bounds>
Lm1=13
Lms1=13
Lm2=12
Lm3=12
Lm4=13
Best=13

<Optimal Stations (Iterations: 10)>
19
